2025-02-23 19:18:28,907 - INFO - Set parameter WLSAccessID
2025-02-23 19:18:28,907 - INFO - Set parameter WLSSecret
2025-02-23 19:18:28,907 - INFO - Set parameter LicenseID to value 2626770
2025-02-23 19:18:28,921 - INFO - Academic license 2626770 - for non-commercial use only - registered to fa___@uw.edu
2025-02-23 19:18:28,923 - INFO - Initialization complete
2025-02-23 19:18:41,757 - INFO - Variables created successfully
2025-02-23 19:21:01,923 - INFO - Constraints added successfully
2025-02-23 19:21:02,249 - INFO - Objective function set successfully
2025-02-23 19:21:02,939 - INFO - Set parameter MIPGap to value 0.1
2025-02-23 19:21:02,941 - INFO - Set parameter TimeLimit to value 3600
2025-02-23 19:21:02,941 - INFO - Set parameter MIPFocus to value 1
2025-02-23 19:21:02,941 - INFO - Set parameter Presolve to value 2
2025-02-23 19:21:02,941 - INFO - Set parameter NodefileStart to value 0.5
2025-02-23 19:21:02,941 - INFO - Set parameter NodefileDir to value "c:/path/to/fast/disk"
2025-02-23 19:21:02,942 - INFO - Set parameter Threads to value 7
2025-02-23 19:21:09,042 - INFO - Greedy initial solution generated successfully
2025-02-23 19:21:09,042 - INFO - Starting optimization - accepting solutions within 10% of optimal
2025-02-23 19:21:09,043 - INFO - Maximum possible satisfied requests: 11400
2025-02-23 19:21:11,392 - INFO - Gurobi Optimizer version 12.0.1 build v12.0.1rc0 (win64 - Windows 11.0 (26100.2))
2025-02-23 19:21:11,392 - INFO - 
2025-02-23 19:21:11,393 - INFO - CPU model: AMD Ryzen 7 2700X Eight-Core Processor, instruction set [SSE2|AVX|AVX2]
2025-02-23 19:21:11,393 - INFO - Thread count: 8 physical cores, 16 logical processors, using up to 7 threads
2025-02-23 19:21:11,393 - INFO - 
2025-02-23 19:21:11,393 - INFO - Non-default parameters:
2025-02-23 19:21:11,393 - INFO - TimeLimit  3600
2025-02-23 19:21:11,395 - INFO - MIPGap  0.1
2025-02-23 19:21:11,395 - INFO - MIPFocus  1
2025-02-23 19:21:11,395 - INFO - NodefileStart  0.5
2025-02-23 19:21:11,395 - INFO - Presolve  2
2025-02-23 19:21:11,395 - INFO - Threads  7
2025-02-23 19:21:11,395 - INFO - 
2025-02-23 19:21:11,396 - INFO - Academic license 2626770 - for non-commercial use only - registered to fa___@uw.edu
2025-02-23 19:21:11,396 - INFO - Optimize a model with 9071482 rows, 3394678 columns and 24873524 nonzeros
2025-02-23 19:21:11,682 - INFO - Model fingerprint: 0x50a650ab
2025-02-23 19:21:11,685 - INFO - Variable types: 0 continuous, 3394678 integer (3394678 binary)
2025-02-23 19:21:11,720 - INFO - Coefficient statistics:
2025-02-23 19:21:11,720 - INFO -   Matrix range     [1e+00, 1e+00]
2025-02-23 19:21:11,720 - INFO -   Objective range  [1e+00, 1e+00]
2025-02-23 19:21:11,720 - INFO -   Bounds range     [1e+00, 1e+00]
2025-02-23 19:21:11,721 - INFO -   RHS range        [1e+00, 4e+01]
2025-02-23 19:21:11,721 - INFO - 
2025-02-23 19:21:11,920 - INFO - User MIP start did not produce a new incumbent solution
2025-02-23 19:21:12,034 - INFO - User MIP start violates constraint course_requirement_ST001_Math_1 by 1.000000000
2025-02-23 19:21:12,043 - INFO - 
2025-02-23 19:21:20,541 - INFO - Presolve removed 1021 rows and 47 columns (presolve time = 5s)...
2025-02-23 19:21:25,608 - INFO - Presolve removed 1023 rows and 47 columns (presolve time = 10s)...
2025-02-23 19:21:30,398 - INFO - Presolve removed 1025 rows and 49 columns (presolve time = 15s)...
2025-02-23 19:21:35,393 - INFO - Presolve removed 1025 rows and 49 columns (presolve time = 20s)...
2025-02-23 19:21:40,397 - INFO - Presolve removed 1025 rows and 49 columns (presolve time = 25s)...
2025-02-23 19:21:45,395 - INFO - Presolve removed 1025 rows and 49 columns (presolve time = 30s)...
2025-02-23 19:21:50,396 - INFO - Presolve removed 1025 rows and 49 columns (presolve time = 35s)...
2025-02-23 19:21:55,395 - INFO - Presolve removed 1025 rows and 49 columns (presolve time = 40s)...
2025-02-23 19:22:00,395 - INFO - Presolve removed 1025 rows and 49 columns (presolve time = 45s)...
2025-02-23 19:22:05,392 - INFO - Presolve removed 1025 rows and 49 columns (presolve time = 50s)...
2025-02-23 19:22:10,402 - INFO - Presolve removed 1025 rows and 49 columns (presolve time = 55s)...
2025-02-23 19:22:15,393 - INFO - Presolve removed 1025 rows and 49 columns (presolve time = 60s)...
2025-02-23 19:22:20,404 - INFO - Presolve removed 1025 rows and 49 columns (presolve time = 65s)...
2025-02-23 19:22:25,407 - INFO - Presolve removed 1025 rows and 49 columns (presolve time = 70s)...
2025-02-23 19:22:30,401 - INFO - Presolve removed 1025 rows and 49 columns (presolve time = 75s)...
2025-02-23 19:22:35,394 - INFO - Presolve removed 1025 rows and 49 columns (presolve time = 80s)...
2025-02-23 19:22:40,407 - INFO - Presolve removed 1025 rows and 49 columns (presolve time = 85s)...
2025-02-23 19:22:45,408 - INFO - Presolve removed 1025 rows and 49 columns (presolve time = 90s)...
2025-02-23 19:22:50,395 - INFO - Presolve removed 1025 rows and 49 columns (presolve time = 95s)...
2025-02-23 19:22:55,402 - INFO - Presolve removed 1025 rows and 49 columns (presolve time = 100s)...
2025-02-23 19:23:00,394 - INFO - Presolve removed 1025 rows and 49 columns (presolve time = 105s)...
2025-02-23 19:23:05,408 - INFO - Presolve removed 1025 rows and 49 columns (presolve time = 110s)...
2025-02-23 19:23:10,411 - INFO - Presolve removed 1025 rows and 49 columns (presolve time = 115s)...
2025-02-23 19:23:15,406 - INFO - Presolve removed 1025 rows and 49 columns (presolve time = 120s)...
2025-02-23 19:23:20,396 - INFO - Presolve removed 1025 rows and 49 columns (presolve time = 125s)...
2025-02-23 19:23:25,399 - INFO - Presolve removed 1025 rows and 49 columns (presolve time = 130s)...
2025-02-23 19:23:30,406 - INFO - Presolve removed 1025 rows and 49 columns (presolve time = 135s)...
2025-02-23 19:23:35,396 - INFO - Presolve removed 1025 rows and 49 columns (presolve time = 140s)...
2025-02-23 19:23:40,398 - INFO - Presolve removed 1025 rows and 49 columns (presolve time = 145s)...
2025-02-23 19:23:45,392 - INFO - Presolve removed 1025 rows and 49 columns (presolve time = 150s)...
2025-02-23 19:23:50,403 - INFO - Presolve removed 1025 rows and 49 columns (presolve time = 155s)...
2025-02-23 19:23:55,406 - INFO - Presolve removed 1025 rows and 49 columns (presolve time = 160s)...
2025-02-23 19:24:00,401 - INFO - Presolve removed 1025 rows and 49 columns (presolve time = 165s)...
2025-02-23 19:24:05,408 - INFO - Presolve removed 1025 rows and 49 columns (presolve time = 170s)...
2025-02-23 19:24:10,414 - INFO - Presolve removed 1025 rows and 49 columns (presolve time = 175s)...
2025-02-23 19:24:15,415 - INFO - Presolve removed 1025 rows and 49 columns (presolve time = 180s)...
2025-02-23 19:24:20,412 - INFO - Presolve removed 1025 rows and 49 columns (presolve time = 185s)...
2025-02-23 19:24:25,407 - INFO - Presolve removed 1025 rows and 49 columns (presolve time = 190s)...
2025-02-23 19:24:30,411 - INFO - Presolve removed 1025 rows and 49 columns (presolve time = 195s)...
2025-02-23 19:24:35,411 - INFO - Presolve removed 1025 rows and 49 columns (presolve time = 200s)...
2025-02-23 19:24:40,394 - INFO - Presolve removed 1025 rows and 49 columns (presolve time = 205s)...
2025-02-23 19:24:45,396 - INFO - Presolve removed 1025 rows and 49 columns (presolve time = 210s)...
2025-02-23 19:24:50,394 - INFO - Presolve removed 1025 rows and 49 columns (presolve time = 215s)...
2025-02-23 19:24:55,398 - INFO - Presolve removed 1025 rows and 49 columns (presolve time = 220s)...
2025-02-23 19:25:00,397 - INFO - Presolve removed 1025 rows and 49 columns (presolve time = 225s)...
2025-02-23 19:25:05,393 - INFO - Presolve removed 1025 rows and 49 columns (presolve time = 230s)...
2025-02-23 19:25:10,406 - INFO - Presolve removed 1025 rows and 49 columns (presolve time = 235s)...
2025-02-23 19:25:15,414 - INFO - Presolve removed 1025 rows and 49 columns (presolve time = 240s)...
2025-02-23 19:25:20,399 - INFO - Presolve removed 1025 rows and 49 columns (presolve time = 245s)...
2025-02-23 19:25:25,407 - INFO - Presolve removed 1025 rows and 49 columns (presolve time = 250s)...
2025-02-23 19:25:30,394 - INFO - Presolve removed 1025 rows and 49 columns (presolve time = 255s)...
2025-02-23 19:25:35,397 - INFO - Presolve removed 1025 rows and 49 columns (presolve time = 260s)...
2025-02-23 19:25:40,400 - INFO - Presolve removed 1025 rows and 49 columns (presolve time = 265s)...
2025-02-23 19:25:45,413 - INFO - Presolve removed 1025 rows and 49 columns (presolve time = 270s)...
2025-02-23 19:25:50,401 - INFO - Presolve removed 1025 rows and 49 columns (presolve time = 275s)...
2025-02-23 19:25:55,403 - INFO - Presolve removed 1025 rows and 49 columns (presolve time = 280s)...
2025-02-23 19:26:00,397 - INFO - Presolve removed 1025 rows and 49 columns (presolve time = 285s)...
2025-02-23 19:26:05,408 - INFO - Presolve removed 1025 rows and 49 columns (presolve time = 290s)...
2025-02-23 19:26:10,405 - INFO - Presolve removed 1025 rows and 49 columns (presolve time = 295s)...
2025-02-23 19:26:15,411 - INFO - Presolve removed 1025 rows and 49 columns (presolve time = 300s)...
2025-02-23 19:26:20,402 - INFO - Presolve removed 1025 rows and 49 columns (presolve time = 305s)...
2025-02-23 19:26:25,396 - INFO - Presolve removed 1025 rows and 49 columns (presolve time = 310s)...
2025-02-23 19:26:30,408 - INFO - Presolve removed 1025 rows and 49 columns (presolve time = 315s)...
2025-02-23 19:26:35,406 - INFO - Presolve removed 1025 rows and 49 columns (presolve time = 320s)...
2025-02-23 19:26:40,412 - INFO - Presolve removed 1025 rows and 49 columns (presolve time = 325s)...
2025-02-23 19:26:45,413 - INFO - Presolve removed 1025 rows and 49 columns (presolve time = 330s)...
2025-02-23 19:26:50,410 - INFO - Presolve removed 1025 rows and 49 columns (presolve time = 335s)...
2025-02-23 19:26:55,457 - INFO - Presolve removed 1025 rows and 49 columns (presolve time = 340s)...
2025-02-23 19:27:00,408 - INFO - Presolve removed 1025 rows and 49 columns (presolve time = 345s)...
2025-02-23 19:27:05,408 - INFO - Presolve removed 1025 rows and 49 columns (presolve time = 350s)...
2025-02-23 19:27:10,399 - INFO - Presolve removed 1025 rows and 49 columns (presolve time = 355s)...
2025-02-23 19:27:15,410 - INFO - Presolve removed 1025 rows and 49 columns (presolve time = 360s)...
2025-02-23 19:27:20,396 - INFO - Presolve removed 1025 rows and 49 columns (presolve time = 365s)...
2025-02-23 19:27:25,393 - INFO - Presolve removed 1025 rows and 49 columns (presolve time = 370s)...
2025-02-23 19:27:30,413 - INFO - Presolve removed 1025 rows and 49 columns (presolve time = 375s)...
2025-02-23 19:27:35,405 - INFO - Presolve removed 1025 rows and 49 columns (presolve time = 380s)...
2025-02-23 19:27:40,404 - INFO - Presolve removed 1025 rows and 49 columns (presolve time = 385s)...
2025-02-23 19:27:45,406 - INFO - Presolve removed 1025 rows and 49 columns (presolve time = 390s)...
2025-02-23 19:27:50,408 - INFO - Presolve removed 1025 rows and 49 columns (presolve time = 395s)...
2025-02-23 19:27:55,394 - INFO - Presolve removed 1025 rows and 49 columns (presolve time = 400s)...
2025-02-23 19:28:00,398 - INFO - Presolve removed 1025 rows and 49 columns (presolve time = 405s)...
2025-02-23 19:28:05,411 - INFO - Presolve removed 1025 rows and 49 columns (presolve time = 410s)...
2025-02-23 19:28:10,411 - INFO - Presolve removed 1025 rows and 49 columns (presolve time = 415s)...
2025-02-23 19:28:15,400 - INFO - Presolve removed 1025 rows and 49 columns (presolve time = 420s)...
2025-02-23 19:28:20,401 - INFO - Presolve removed 1025 rows and 49 columns (presolve time = 425s)...
2025-02-23 19:28:25,397 - INFO - Presolve removed 1025 rows and 49 columns (presolve time = 430s)...
2025-02-23 19:28:30,409 - INFO - Presolve removed 1025 rows and 49 columns (presolve time = 435s)...
2025-02-23 19:28:35,412 - INFO - Presolve removed 1025 rows and 49 columns (presolve time = 440s)...
2025-02-23 19:28:40,402 - INFO - Presolve removed 1025 rows and 49 columns (presolve time = 445s)...
2025-02-23 19:28:45,413 - INFO - Presolve removed 1025 rows and 49 columns (presolve time = 450s)...
2025-02-23 19:28:50,396 - INFO - Presolve removed 1025 rows and 49 columns (presolve time = 455s)...
2025-02-23 19:28:55,407 - INFO - Presolve removed 1025 rows and 49 columns (presolve time = 460s)...
2025-02-23 19:29:00,398 - INFO - Presolve removed 1025 rows and 49 columns (presolve time = 465s)...
2025-02-23 19:29:05,394 - INFO - Presolve removed 1025 rows and 49 columns (presolve time = 470s)...
2025-02-23 19:29:10,402 - INFO - Presolve removed 1025 rows and 49 columns (presolve time = 475s)...
2025-02-23 19:29:15,417 - INFO - Presolve removed 1025 rows and 49 columns (presolve time = 480s)...
2025-02-23 19:29:20,392 - INFO - Presolve removed 1025 rows and 49 columns (presolve time = 485s)...
2025-02-23 19:29:25,400 - INFO - Presolve removed 1025 rows and 49 columns (presolve time = 490s)...
2025-02-23 19:29:30,408 - INFO - Presolve removed 1025 rows and 49 columns (presolve time = 495s)...
2025-02-23 19:29:35,400 - INFO - Presolve removed 1025 rows and 49 columns (presolve time = 500s)...
2025-02-23 19:29:40,399 - INFO - Presolve removed 1025 rows and 49 columns (presolve time = 505s)...
2025-02-23 19:29:45,412 - INFO - Presolve removed 1025 rows and 49 columns (presolve time = 510s)...
2025-02-23 19:29:50,396 - INFO - Presolve removed 1025 rows and 49 columns (presolve time = 515s)...
2025-02-23 19:29:55,394 - INFO - Presolve removed 1025 rows and 49 columns (presolve time = 520s)...
2025-02-23 19:30:00,410 - INFO - Presolve removed 1025 rows and 49 columns (presolve time = 525s)...
2025-02-23 19:30:05,402 - INFO - Presolve removed 1025 rows and 49 columns (presolve time = 530s)...
2025-02-23 19:30:10,403 - INFO - Presolve removed 1025 rows and 49 columns (presolve time = 535s)...
2025-02-23 19:30:15,414 - INFO - Presolve removed 1025 rows and 49 columns (presolve time = 540s)...
2025-02-23 19:30:20,407 - INFO - Presolve removed 1025 rows and 49 columns (presolve time = 545s)...
2025-02-23 19:30:25,414 - INFO - Presolve removed 1025 rows and 49 columns (presolve time = 550s)...
2025-02-23 19:30:30,393 - INFO - Presolve removed 1025 rows and 49 columns (presolve time = 555s)...
2025-02-23 19:30:35,393 - INFO - Presolve removed 1025 rows and 49 columns (presolve time = 560s)...
2025-02-23 19:30:40,401 - INFO - Presolve removed 1025 rows and 49 columns (presolve time = 565s)...
2025-02-23 19:30:45,399 - INFO - Presolve removed 1025 rows and 49 columns (presolve time = 570s)...
2025-02-23 19:30:50,406 - INFO - Presolve removed 1025 rows and 49 columns (presolve time = 575s)...
2025-02-23 19:30:55,397 - INFO - Presolve removed 1025 rows and 49 columns (presolve time = 580s)...
2025-02-23 19:31:00,405 - INFO - Presolve removed 1025 rows and 49 columns (presolve time = 585s)...
2025-02-23 19:31:05,406 - INFO - Presolve removed 1025 rows and 49 columns (presolve time = 590s)...
2025-02-23 19:31:10,414 - INFO - Presolve removed 1025 rows and 49 columns (presolve time = 595s)...
2025-02-23 19:31:15,407 - INFO - Presolve removed 1025 rows and 49 columns (presolve time = 600s)...
2025-02-23 19:31:20,392 - INFO - Presolve removed 1025 rows and 49 columns (presolve time = 605s)...
2025-02-23 19:31:25,404 - INFO - Presolve removed 1025 rows and 49 columns (presolve time = 610s)...
2025-02-23 19:31:30,405 - INFO - Presolve removed 1025 rows and 49 columns (presolve time = 615s)...
2025-02-23 19:31:35,415 - INFO - Presolve removed 1025 rows and 49 columns (presolve time = 620s)...
2025-02-23 19:31:40,394 - INFO - Presolve removed 1025 rows and 49 columns (presolve time = 625s)...
2025-02-23 19:31:45,400 - INFO - Presolve removed 1025 rows and 49 columns (presolve time = 630s)...
2025-02-23 19:31:50,397 - INFO - Presolve removed 1025 rows and 49 columns (presolve time = 635s)...
2025-02-23 19:31:55,403 - INFO - Presolve removed 1025 rows and 49 columns (presolve time = 640s)...
2025-02-23 19:32:00,410 - INFO - Presolve removed 1025 rows and 49 columns (presolve time = 645s)...
2025-02-23 19:32:05,403 - INFO - Presolve removed 1025 rows and 49 columns (presolve time = 650s)...
2025-02-23 19:32:10,413 - INFO - Presolve removed 1025 rows and 49 columns (presolve time = 655s)...
2025-02-23 19:32:15,403 - INFO - Presolve removed 1025 rows and 49 columns (presolve time = 660s)...
2025-02-23 19:32:20,430 - INFO - Presolve removed 1025 rows and 49 columns (presolve time = 665s)...
2025-02-23 19:32:25,448 - INFO - Presolve removed 1025 rows and 49 columns (presolve time = 670s)...
2025-02-23 19:32:30,403 - INFO - Presolve removed 1025 rows and 49 columns (presolve time = 675s)...
2025-02-23 19:32:35,425 - INFO - Presolve removed 1025 rows and 49 columns (presolve time = 680s)...
2025-02-23 19:32:40,436 - INFO - Presolve removed 1025 rows and 49 columns (presolve time = 685s)...
2025-02-23 19:32:45,442 - INFO - Presolve removed 1025 rows and 49 columns (presolve time = 690s)...
2025-02-23 19:32:50,415 - INFO - Presolve removed 1025 rows and 49 columns (presolve time = 695s)...
2025-02-23 19:32:55,446 - INFO - Presolve removed 1025 rows and 49 columns (presolve time = 700s)...
2025-02-23 19:33:00,400 - INFO - Presolve removed 1025 rows and 49 columns (presolve time = 705s)...
2025-02-23 19:33:05,423 - INFO - Presolve removed 1025 rows and 49 columns (presolve time = 710s)...
2025-02-23 19:33:10,449 - INFO - Presolve removed 1025 rows and 49 columns (presolve time = 715s)...
2025-02-23 19:33:15,408 - INFO - Presolve removed 1025 rows and 49 columns (presolve time = 720s)...
2025-02-23 19:33:20,421 - INFO - Presolve removed 1025 rows and 49 columns (presolve time = 725s)...
2025-02-23 19:33:25,402 - INFO - Presolve removed 1025 rows and 49 columns (presolve time = 730s)...
2025-02-23 19:33:30,419 - INFO - Presolve removed 1025 rows and 49 columns (presolve time = 735s)...
2025-02-23 19:33:35,432 - INFO - Presolve removed 1025 rows and 49 columns (presolve time = 740s)...
2025-02-23 19:33:40,452 - INFO - Presolve removed 1025 rows and 49 columns (presolve time = 745s)...
2025-02-23 19:33:45,395 - INFO - Presolve removed 1025 rows and 49 columns (presolve time = 750s)...
2025-02-23 19:33:50,414 - INFO - Presolve removed 1025 rows and 49 columns (presolve time = 755s)...
2025-02-23 19:33:55,402 - INFO - Presolve removed 1025 rows and 49 columns (presolve time = 760s)...
2025-02-23 19:34:00,425 - INFO - Presolve removed 1025 rows and 49 columns (presolve time = 765s)...
2025-02-23 19:34:05,428 - INFO - Presolve removed 1025 rows and 49 columns (presolve time = 770s)...
2025-02-23 19:34:10,429 - INFO - Presolve removed 1025 rows and 49 columns (presolve time = 775s)...
2025-02-23 19:34:15,433 - INFO - Presolve removed 1025 rows and 49 columns (presolve time = 780s)...
2025-02-23 19:34:20,443 - INFO - Presolve removed 1025 rows and 49 columns (presolve time = 785s)...
2025-02-23 19:34:25,423 - INFO - Presolve removed 1025 rows and 49 columns (presolve time = 790s)...
2025-02-23 19:34:30,444 - INFO - Presolve removed 1025 rows and 49 columns (presolve time = 795s)...
2025-02-23 19:34:35,446 - INFO - Presolve removed 1025 rows and 49 columns (presolve time = 800s)...
2025-02-23 19:34:40,436 - INFO - Presolve removed 1025 rows and 49 columns (presolve time = 805s)...
2025-02-23 19:34:45,405 - INFO - Presolve removed 1025 rows and 49 columns (presolve time = 810s)...
2025-02-23 19:34:50,426 - INFO - Presolve removed 1025 rows and 49 columns (presolve time = 815s)...
2025-02-23 19:34:55,421 - INFO - Presolve removed 1025 rows and 49 columns (presolve time = 820s)...
2025-02-23 19:35:00,397 - INFO - Presolve removed 1025 rows and 49 columns (presolve time = 825s)...
2025-02-23 19:35:05,412 - INFO - Presolve removed 1025 rows and 49 columns (presolve time = 830s)...
2025-02-23 19:35:10,415 - INFO - Presolve removed 1025 rows and 49 columns (presolve time = 835s)...
2025-02-23 19:35:15,421 - INFO - Presolve removed 1025 rows and 49 columns (presolve time = 840s)...
2025-02-23 19:35:20,400 - INFO - Presolve removed 1025 rows and 49 columns (presolve time = 845s)...
2025-02-23 19:35:25,410 - INFO - Presolve removed 1025 rows and 49 columns (presolve time = 850s)...
2025-02-23 19:35:30,412 - INFO - Presolve removed 1025 rows and 49 columns (presolve time = 855s)...
2025-02-23 19:35:35,455 - INFO - Presolve removed 1025 rows and 49 columns (presolve time = 860s)...
2025-02-23 19:35:40,426 - INFO - Presolve removed 1025 rows and 49 columns (presolve time = 865s)...
2025-02-23 19:35:45,448 - INFO - Presolve removed 1025 rows and 49 columns (presolve time = 870s)...
2025-02-23 19:35:50,420 - INFO - Presolve removed 1025 rows and 49 columns (presolve time = 875s)...
2025-02-23 19:35:55,400 - INFO - Presolve removed 1025 rows and 49 columns (presolve time = 880s)...
2025-02-23 19:36:00,446 - INFO - Presolve removed 1025 rows and 49 columns (presolve time = 885s)...
2025-02-23 19:36:05,427 - INFO - Presolve removed 1025 rows and 49 columns (presolve time = 890s)...
2025-02-23 19:36:10,393 - INFO - Presolve removed 1025 rows and 49 columns (presolve time = 895s)...
2025-02-23 19:36:15,435 - INFO - Presolve removed 1025 rows and 49 columns (presolve time = 900s)...
2025-02-23 19:36:20,406 - INFO - Presolve removed 1025 rows and 49 columns (presolve time = 905s)...
2025-02-23 19:36:25,423 - INFO - Presolve removed 1025 rows and 49 columns (presolve time = 910s)...
2025-02-23 19:36:30,400 - INFO - Presolve removed 1025 rows and 49 columns (presolve time = 915s)...
2025-02-23 19:36:35,441 - INFO - Presolve removed 1025 rows and 49 columns (presolve time = 920s)...
2025-02-23 19:36:40,423 - INFO - Presolve removed 1025 rows and 49 columns (presolve time = 925s)...
2025-02-23 19:36:45,454 - INFO - Presolve removed 1025 rows and 49 columns (presolve time = 930s)...
2025-02-23 19:36:50,418 - INFO - Presolve removed 1025 rows and 49 columns (presolve time = 935s)...
2025-02-23 19:36:55,446 - INFO - Presolve removed 1025 rows and 49 columns (presolve time = 940s)...
2025-02-23 19:37:00,405 - INFO - Presolve removed 1025 rows and 49 columns (presolve time = 945s)...
2025-02-23 19:37:05,413 - INFO - Presolve removed 1025 rows and 49 columns (presolve time = 950s)...
2025-02-23 19:37:10,397 - INFO - Presolve removed 1025 rows and 49 columns (presolve time = 955s)...
2025-02-23 19:37:15,427 - INFO - Presolve removed 1025 rows and 49 columns (presolve time = 960s)...
2025-02-23 19:37:20,398 - INFO - Presolve removed 1025 rows and 49 columns (presolve time = 965s)...
2025-02-23 19:37:25,432 - INFO - Presolve removed 1025 rows and 49 columns (presolve time = 970s)...
2025-02-23 19:37:30,399 - INFO - Presolve removed 1025 rows and 49 columns (presolve time = 975s)...
2025-02-23 19:37:35,457 - INFO - Presolve removed 1025 rows and 49 columns (presolve time = 980s)...
2025-02-23 19:37:40,465 - INFO - Presolve removed 1025 rows and 49 columns (presolve time = 985s)...
2025-02-23 19:37:45,444 - INFO - Presolve removed 1025 rows and 49 columns (presolve time = 990s)...
2025-02-23 19:37:50,431 - INFO - Presolve removed 1025 rows and 49 columns (presolve time = 995s)...
2025-02-23 19:37:55,429 - INFO - Presolve removed 1025 rows and 49 columns (presolve time = 1000s)...
2025-02-23 19:38:00,429 - INFO - Presolve removed 1025 rows and 49 columns (presolve time = 1005s)...
2025-02-23 19:38:05,431 - INFO - Presolve removed 1025 rows and 49 columns (presolve time = 1010s)...
2025-02-23 19:38:10,401 - INFO - Presolve removed 1025 rows and 49 columns (presolve time = 1015s)...
2025-02-23 19:38:15,430 - INFO - Presolve removed 1025 rows and 49 columns (presolve time = 1020s)...
2025-02-23 19:38:20,404 - INFO - Presolve removed 1025 rows and 49 columns (presolve time = 1025s)...
2025-02-23 19:38:25,438 - INFO - Presolve removed 1025 rows and 49 columns (presolve time = 1030s)...
2025-02-23 19:38:30,408 - INFO - Presolve removed 1025 rows and 49 columns (presolve time = 1035s)...
2025-02-23 19:38:35,444 - INFO - Presolve removed 1025 rows and 49 columns (presolve time = 1040s)...
2025-02-23 19:38:40,422 - INFO - Presolve removed 1025 rows and 49 columns (presolve time = 1045s)...
2025-02-23 19:38:45,392 - INFO - Presolve removed 1025 rows and 49 columns (presolve time = 1050s)...
2025-02-23 19:38:50,393 - INFO - Presolve removed 1025 rows and 49 columns (presolve time = 1055s)...
2025-02-23 19:38:55,393 - INFO - Presolve removed 1025 rows and 49 columns (presolve time = 1060s)...
2025-02-23 19:39:00,394 - INFO - Presolve removed 1025 rows and 49 columns (presolve time = 1065s)...
2025-02-23 19:39:05,392 - INFO - Presolve removed 1025 rows and 49 columns (presolve time = 1070s)...
2025-02-23 19:39:10,394 - INFO - Presolve removed 1025 rows and 49 columns (presolve time = 1075s)...
2025-02-23 19:39:15,392 - INFO - Presolve removed 1025 rows and 49 columns (presolve time = 1080s)...
2025-02-23 19:39:20,393 - INFO - Presolve removed 1025 rows and 49 columns (presolve time = 1085s)...
2025-02-23 19:39:25,392 - INFO - Presolve removed 1025 rows and 49 columns (presolve time = 1090s)...
2025-02-23 19:39:30,394 - INFO - Presolve removed 1025 rows and 49 columns (presolve time = 1095s)...
2025-02-23 19:39:35,394 - INFO - Presolve removed 1025 rows and 49 columns (presolve time = 1100s)...
2025-02-23 19:39:40,405 - INFO - Presolve removed 1025 rows and 49 columns (presolve time = 1105s)...
2025-02-23 19:39:45,393 - INFO - Presolve removed 1025 rows and 49 columns (presolve time = 1110s)...
2025-02-23 19:39:50,392 - INFO - Presolve removed 1025 rows and 49 columns (presolve time = 1115s)...
2025-02-23 19:39:55,395 - INFO - Presolve removed 1025 rows and 49 columns (presolve time = 1120s)...
2025-02-23 19:40:00,394 - INFO - Presolve removed 1025 rows and 49 columns (presolve time = 1125s)...
2025-02-23 19:40:05,394 - INFO - Presolve removed 1025 rows and 49 columns (presolve time = 1130s)...
2025-02-23 19:40:10,394 - INFO - Presolve removed 1025 rows and 49 columns (presolve time = 1135s)...
2025-02-23 19:40:15,392 - INFO - Presolve removed 1025 rows and 49 columns (presolve time = 1140s)...
2025-02-23 19:40:20,394 - INFO - Presolve removed 1025 rows and 49 columns (presolve time = 1145s)...
2025-02-23 19:40:25,395 - INFO - Presolve removed 1025 rows and 49 columns (presolve time = 1150s)...
2025-02-23 19:40:30,393 - INFO - Presolve removed 1025 rows and 49 columns (presolve time = 1155s)...
2025-02-23 19:40:35,392 - INFO - Presolve removed 1025 rows and 49 columns (presolve time = 1160s)...
2025-02-23 19:40:40,393 - INFO - Presolve removed 1025 rows and 49 columns (presolve time = 1165s)...
2025-02-23 19:40:45,393 - INFO - Presolve removed 1025 rows and 49 columns (presolve time = 1170s)...
2025-02-23 19:40:50,393 - INFO - Presolve removed 1025 rows and 49 columns (presolve time = 1175s)...
2025-02-23 19:40:55,395 - INFO - Presolve removed 1025 rows and 49 columns (presolve time = 1180s)...
2025-02-23 19:41:00,490 - INFO - Presolve removed 1025 rows and 49 columns (presolve time = 1185s)...
2025-02-23 19:41:05,702 - INFO - Presolve removed 1025 rows and 49 columns (presolve time = 1190s)...
2025-02-23 19:41:10,393 - INFO - Presolve removed 1025 rows and 49 columns (presolve time = 1195s)...
2025-02-23 19:41:15,393 - INFO - Presolve removed 1025 rows and 49 columns (presolve time = 1200s)...
2025-02-23 19:41:20,394 - INFO - Presolve removed 1025 rows and 49 columns (presolve time = 1205s)...
2025-02-23 19:41:25,396 - INFO - Presolve removed 1025 rows and 49 columns (presolve time = 1210s)...
2025-02-23 19:41:30,396 - INFO - Presolve removed 1025 rows and 49 columns (presolve time = 1215s)...
2025-02-23 19:41:35,398 - INFO - Presolve removed 1025 rows and 49 columns (presolve time = 1220s)...
2025-02-23 19:41:40,394 - INFO - Presolve removed 1025 rows and 49 columns (presolve time = 1225s)...
2025-02-23 19:41:45,394 - INFO - Presolve removed 1025 rows and 49 columns (presolve time = 1230s)...
2025-02-23 19:41:50,394 - INFO - Presolve removed 1025 rows and 49 columns (presolve time = 1235s)...
2025-02-23 19:41:55,406 - INFO - Presolve removed 1025 rows and 49 columns (presolve time = 1240s)...
2025-02-23 19:42:00,440 - INFO - Presolve removed 1025 rows and 49 columns (presolve time = 1245s)...
2025-02-23 19:42:05,486 - INFO - Presolve removed 1025 rows and 49 columns (presolve time = 1250s)...
2025-02-23 19:42:10,495 - INFO - Presolve removed 1025 rows and 49 columns (presolve time = 1255s)...
2025-02-23 19:42:15,412 - INFO - Presolve removed 1025 rows and 49 columns (presolve time = 1260s)...
2025-02-23 19:42:20,523 - INFO - Presolve removed 1025 rows and 49 columns (presolve time = 1265s)...
2025-02-23 19:42:25,426 - INFO - Presolve removed 1025 rows and 49 columns (presolve time = 1270s)...
2025-02-23 19:42:30,403 - INFO - Presolve removed 1025 rows and 49 columns (presolve time = 1275s)...
2025-02-23 19:42:35,407 - INFO - Presolve removed 1025 rows and 49 columns (presolve time = 1280s)...
2025-02-23 19:42:41,229 - INFO - Presolve removed 1025 rows and 49 columns (presolve time = 1286s)...
2025-02-23 19:42:45,399 - INFO - Presolve removed 1025 rows and 49 columns (presolve time = 1290s)...
2025-02-23 19:42:50,394 - INFO - Presolve removed 1025 rows and 49 columns (presolve time = 1295s)...
2025-02-23 19:42:55,392 - INFO - Presolve removed 1025 rows and 49 columns (presolve time = 1300s)...
2025-02-23 20:21:11,693 - INFO - Presolve removed 1025 rows and 49 columns (presolve time = 3596s)...
2025-02-23 20:21:59,033 - INFO - Presolve removed 1025 rows and 49 columns (presolve time = 3644s)...
2025-02-23 20:21:59,530 - INFO - Presolve removed 1025 rows and 49 columns
2025-02-23 20:21:59,531 - INFO - Presolve time: 3644.13s
2025-02-23 20:22:00,352 - INFO - 
2025-02-23 20:22:00,353 - INFO - Explored 0 nodes (0 simplex iterations) in 3648.95 seconds (1759.03 work units)
2025-02-23 20:22:00,354 - INFO - Thread count was 1 (of 16 available processors)
2025-02-23 20:22:00,354 - INFO - 
2025-02-23 20:22:00,354 - INFO - Solution count 0
2025-02-23 20:22:00,354 - INFO - 
2025-02-23 20:22:00,355 - INFO - Best objective -, best bound -, gap -
2025-02-23 20:22:00,447 - ERROR - Gurobi error: Out of memory
2025-02-23 20:22:00,451 - ERROR - Error running optimization: Out of memory
2025-02-23 20:22:00,479 - INFO - Warning: environment still referenced so free is deferred (Continue to use WLS)
